2781.44
0 18 17 10 1 2 9 6 5 3 4 16 13 27 0
0 8 7 22 14 23 11 12 21 19 0
0 30 31 24 20 15 0
0 33 40 37 46 43 28 41 44 25 26 0
0 29 58 36 32 45 35 52 0
0 39 47 38 42 59 55 0
0 64 65 50 56 48 54 67 60 68 49 53 62 57 51 73 0
0 72 69 63 61 0
0 70 71 66 75 0
0 74 34 0
